(set-logic QF_S)
(declare-fun var0 () String)
(declare-fun var1 () String)
(declare-fun var2 () String)
(declare-fun var3 () String)
(declare-fun var4 () String)
(declare-fun var5 () String)
(declare-fun var6 () String)
(declare-fun var7 () String)
(declare-fun var8 () String)
(declare-fun var9 () String)
(declare-fun var10 () String)
(declare-fun var11 () String)
(declare-fun var12 () String)
(declare-fun var13 () String)
(declare-fun var14 () String)
(declare-fun var15 () String)
(declare-fun var16 () String)
(declare-fun var17 () String)
(declare-fun var18 () String)
(declare-fun var19 () String)
(declare-fun var20 () String)
(declare-fun var21 () String)
(declare-fun var22 () String)
(declare-fun var23 () String)
(declare-fun var24 () String)
(declare-fun var25 () String)
(declare-fun var26 () String)
(declare-fun var27 () String)
(declare-fun var28 () String)
(declare-fun var29 () String)
(declare-fun var30 () String)
(declare-fun var31 () String)
(declare-fun var32 () String)
(declare-fun var33 () String)
(declare-fun var34 () String)
(declare-fun var35 () String)
(declare-fun var36 () String)
(declare-fun var37 () String)
(declare-fun var38 () String)
(declare-fun var39 () String)
(declare-fun var40 () String)
(declare-fun var41 () String)
(declare-fun var42 () String)
(declare-fun var43 () String)
(declare-fun var44 () String)
(declare-fun var45 () String)
(declare-fun var46 () String)
(declare-fun var47 () String)
(declare-fun var48 () String)
(declare-fun var49 () String)
(declare-fun var50 () String)
(declare-fun var51 () String)
(declare-fun var52 () String)
(declare-fun var53 () String)
(declare-fun var54 () String)
(declare-fun var55 () String)
(declare-fun var56 () String)
(declare-fun var57 () String)
(declare-fun var58 () String)
(declare-fun var59 () String)
(declare-fun var60 () String)
(assert (= var0 (Concat var1 var2)))
(assert (= var2 (Concat var3 var4)))
(assert (= var4 (Concat var5 var6)))
(assert (= var6 (Concat var7 var8)))
(assert (= var8 (Concat var9 var10)))
(assert (= var10 (Concat var11 var12)))
(assert (= var12 (Concat var13 var14)))
(assert (= var14 (Concat var15 var16)))
(assert (= var16 (Concat var17 var18)))
(assert (= var18 (Concat var19 var20)))
(assert (= var20 (Concat var21 var22)))
(assert (= var22 (Concat var23 var24)))
(assert (= var24 (Concat var25 var26)))
(assert (= var26 (Concat var27 var28)))
(assert (= var28 (Concat var29 var30)))
(assert (= var30 (Concat var31 var32)))
(assert (= var32 (Concat var33 var34)))
(assert (= var34 (Concat var35 var36)))
(assert (= var36 (Concat var37 var38)))
(assert (= var38 (Concat var39 var40)))
(assert (= var40 (Concat var41 var42)))
(assert (= var42 (Concat var43 var44)))
(assert (= var44 (Concat var45 var46)))
(assert (= var46 (Concat var47 var48)))
(assert (= var48 (Concat var49 var50)))
(assert (= var50 (Concat var51 var52)))
(assert (= var52 (Concat var53 var54)))
(assert (= var54 (Concat var55 var56)))
(assert (= var56 (Concat var57 var58)))
(assert (= var58 (Concat var59 var60)))
(assert (= var0 "solution"))
(assert (= "w" (CharAt var4 831)))
(assert (= "*" (CharAt var2 984)))
(assert (= "p" (CharAt var47 700)))
(assert (= "c" (CharAt var46 787)))
(assert (= "z" (CharAt var39 554)))
(assert (= "J" (CharAt var17 964)))
(assert (= "`" (CharAt var25 518)))
(assert (= "0" (CharAt var2 570)))
(assert (= "V" (CharAt var28 179)))
(assert (= "{" (CharAt var17 452)))
(assert (= "R" (CharAt var37 440)))
(assert (= "9" (CharAt var37 262)))
(assert (= "w" (CharAt var53 486)))
(assert (= "s" (CharAt var38 983)))
(assert (= "2" (CharAt var33 699)))
(assert (= "X" (CharAt var29 223)))
(assert (= "\"" (CharAt var56 319)))
(assert (= "y" (CharAt var56 845)))
(assert (= "Q" (CharAt var43 167)))
(assert (= ">" (CharAt var7 932)))
(assert (= "w" (CharAt var23 739)))
(assert (= "?" (CharAt var51 509)))
(assert (= "]" (CharAt var0 415)))
(assert (= "[" (CharAt var8 936)))
(assert (= "4" (CharAt var11 878)))
(assert (= "i" (CharAt var59 760)))
(assert (= "m" (CharAt var18 975)))
(assert (= "[" (CharAt var40 485)))
(assert (= "R" (CharAt var45 187)))
(assert (= "C" (CharAt var20 929)))
(assert (= "+" (CharAt var7 961)))
(assert (= "~" (CharAt var26 473)))
(assert (= "4" (CharAt var47 455)))
(assert (= ">" (CharAt var16 787)))
(assert (= "=" (CharAt var28 129)))
(assert (= "U" (CharAt var23 821)))
(assert (= "=" (CharAt var11 339)))
(assert (= "Q" (CharAt var54 802)))
(assert (= "N" (CharAt var14 688)))
(assert (= "l" (CharAt var55 374)))
(assert (= "m" (CharAt var9 343)))
(assert (= "W" (CharAt var30 554)))
(assert (= "}" (CharAt var16 882)))
(assert (= "a" (CharAt var20 289)))
(assert (= "T" (CharAt var52 1000)))
(assert (= "\"" (CharAt var35 610)))
(assert (= ")" (CharAt var48 384)))
(assert (= "`" (CharAt var37 100)))
(assert (= "x" (CharAt var54 846)))
(assert (= "i" (CharAt var36 561)))
(assert (= "'" (CharAt var0 176)))
(assert (= "3" (CharAt var13 94)))
(assert (= "I" (CharAt var14 364)))
(assert (= "l" (CharAt var8 144)))
(assert (= "E" (CharAt var15 135)))
(assert (= "}" (CharAt var39 551)))
(assert (= "|" (CharAt var58 977)))
(assert (= "~" (CharAt var0 96)))
(assert (= "%" (CharAt var39 768)))
(assert (= "z" (CharAt var20 520)))
(assert (= "W" (CharAt var11 811)))
(assert (= "b" (CharAt var3 340)))
(assert (= "f" (CharAt var34 30)))
(assert (= "u" (CharAt var13 830)))
(assert (= "Z" (CharAt var55 747)))
(assert (= "x" (CharAt var2 886)))
(assert (= "1" (CharAt var47 854)))
(assert (= "2" (CharAt var55 998)))
(assert (= "i" (CharAt var18 378)))
(assert (= "U" (CharAt var13 397)))
(assert (= "\\" (CharAt var30 168)))
(assert (= "]" (CharAt var8 398)))
(assert (= "," (CharAt var42 567)))
(assert (= "e" (CharAt var43 249)))
(assert (= "." (CharAt var44 50)))
(assert (= "~" (CharAt var2 609)))
(assert (= "p" (CharAt var40 308)))
(assert (= "j" (CharAt var32 399)))
(assert (= "U" (CharAt var11 513)))
(assert (= "b" (CharAt var18 190)))
(assert (= "c" (CharAt var26 759)))
(assert (= ":" (CharAt var59 977)))
(assert (= "W" (CharAt var34 599)))
(assert (= "y" (CharAt var57 187)))
(assert (= "}" (CharAt var40 979)))
(assert (= "3" (CharAt var11 318)))
(assert (= "%" (CharAt var29 883)))
(assert (= "H" (CharAt var8 742)))
(assert (= "7" (CharAt var45 793)))
(assert (= "<" (CharAt var32 621)))
(assert (= "]" (CharAt var57 336)))
(assert (= "<" (CharAt var8 523)))
(assert (= "+" (CharAt var16 605)))
(assert (= "[" (CharAt var21 235)))
(assert (= "C" (CharAt var1 63)))
(assert (= "A" (CharAt var31 827)))
(assert (= ">" (CharAt var31 236)))
(assert (= "f" (CharAt var37 0)))
(assert (= "3" (CharAt var12 938)))
(assert (= "4" (CharAt var36 762)))
(assert (= "%" (CharAt var6 289)))
(assert (= "l" (CharAt var43 699)))
(assert (= "c" (CharAt var7 104)))
(assert (= "w" (CharAt var23 965)))
(assert (= "W" (CharAt var55 106)))
(assert (= "6" (CharAt var16 615)))
(assert (= "G" (CharAt var8 492)))
(assert (= "P" (CharAt var15 858)))
(assert (= "H" (CharAt var19 877)))
(assert (= "#" (CharAt var0 144)))
(assert (= "7" (CharAt var35 719)))
(assert (= "#" (CharAt var39 895)))
(assert (= "[" (CharAt var48 83)))
(assert (= "9" (CharAt var1 455)))
(assert (= "O" (CharAt var14 263)))
(assert (= "!" (CharAt var16 546)))
(assert (= "C" (CharAt var7 719)))
(assert (= "I" (CharAt var26 46)))
(assert (= "3" (CharAt var50 421)))
(assert (= "I" (CharAt var37 426)))
(assert (= "," (CharAt var53 734)))
(assert (= "V" (CharAt var25 395)))
(assert (= "R" (CharAt var42 146)))
(assert (= "," (CharAt var59 785)))
(assert (= "F" (CharAt var39 113)))
(assert (= "\\" (CharAt var41 667)))
(assert (= "m" (CharAt var56 878)))
(assert (= "@" (CharAt var1 852)))
(assert (= "^" (CharAt var35 673)))
(assert (= "b" (CharAt var28 136)))
(assert (= "\"" (CharAt var20 771)))
(assert (= "3" (CharAt var16 451)))
(assert (= "H" (CharAt var28 997)))
(assert (= "6" (CharAt var36 325)))
(assert (= "$" (CharAt var54 466)))
(assert (= "L" (CharAt var13 866)))
(assert (= "." (CharAt var7 585)))
(assert (= "R" (CharAt var41 626)))
(assert (= "=" (CharAt var18 305)))
(assert (= "7" (CharAt var34 920)))
(assert (= "$" (CharAt var40 695)))
(assert (= "*" (CharAt var56 751)))
(assert (= "}" (CharAt var54 576)))
(assert (= "C" (CharAt var12 307)))
(assert (= "=" (CharAt var2 884)))
(assert (= "W" (CharAt var51 58)))
(assert (= "z" (CharAt var29 51)))
(assert (= "S" (CharAt var33 571)))
(assert (= "O" (CharAt var55 370)))
(assert (= "E" (CharAt var57 734)))
(assert (= "h" (CharAt var25 692)))
(assert (= "Q" (CharAt var25 552)))
(assert (= "u" (CharAt var33 156)))
(assert (= "&" (CharAt var31 190)))
(assert (= "W" (CharAt var30 768)))
(assert (= "y" (CharAt var38 160)))
(assert (= "v" (CharAt var12 559)))
(assert (= "]" (CharAt var14 467)))
(assert (= "#" (CharAt var11 264)))
(assert (= "t" (CharAt var19 382)))
(assert (= "t" (CharAt var59 452)))
(assert (= "{" (CharAt var16 951)))
(assert (= "E" (CharAt var10 34)))
(assert (= "t" (CharAt var7 794)))
(assert (= "}" (CharAt var25 186)))
(assert (= "~" (CharAt var31 297)))
(assert (= "q" (CharAt var1 321)))
(assert (= "b" (CharAt var56 188)))
(assert (= "*" (CharAt var23 385)))
(assert (= "^" (CharAt var55 281)))
(assert (= "+" (CharAt var46 480)))
(assert (= "=" (CharAt var9 787)))
(assert (= "|" (CharAt var3 838)))
(assert (= "b" (CharAt var48 817)))
(assert (= "d" (CharAt var40 949)))
(assert (= "q" (CharAt var27 254)))
(assert (= "X" (CharAt var29 674)))
(assert (= "G" (CharAt var27 788)))
(assert (= "i" (CharAt var50 440)))
(assert (= "m" (CharAt var43 344)))
(assert (= "5" (CharAt var37 651)))
(assert (= "!" (CharAt var7 840)))
(assert (= ";" (CharAt var48 318)))
(assert (= "m" (CharAt var13 104)))
(assert (= "w" (CharAt var21 631)))
(assert (= "R" (CharAt var50 76)))
(assert (= "9" (CharAt var37 120)))
(assert (= "_" (CharAt var17 632)))
(assert (= "e" (CharAt var37 740)))
(assert (= "g" (CharAt var19 970)))
(assert (= "a" (CharAt var23 172)))
(assert (= "[" (CharAt var16 434)))
(assert (= "I" (CharAt var28 758)))
(assert (= "G" (CharAt var56 350)))
(assert (= "'" (CharAt var55 392)))
(assert (= "'" (CharAt var20 445)))
(assert (= "]" (CharAt var55 116)))
(assert (= "O" (CharAt var13 468)))
(assert (= "~" (CharAt var39 434)))
(assert (= "8" (CharAt var7 185)))
(assert (= "5" (CharAt var13 24)))
(assert (= "]" (CharAt var45 102)))
(assert (= ")" (CharAt var23 141)))
(assert (= "." (CharAt var50 823)))
(assert (= "F" (CharAt var28 33)))
(assert (= "q" (CharAt var29 339)))
(assert (= "U" (CharAt var44 198)))
(assert (= "Q" (CharAt var41 485)))
(assert (= "*" (CharAt var54 32)))
(assert (= "S" (CharAt var33 39)))
(assert (= "*" (CharAt var29 484)))
(assert (= "[" (CharAt var53 857)))
(assert (= "$" (CharAt var57 563)))
(assert (= "x" (CharAt var7 64)))
(assert (= "s" (CharAt var20 493)))
(assert (= "4" (CharAt var14 267)))
(assert (= "1" (CharAt var45 210)))
(assert (= "*" (CharAt var24 63)))
(assert (= "d" (CharAt var31 234)))
(assert (= "(" (CharAt var53 673)))
(assert (= "Y" (CharAt var45 646)))
(assert (= "I" (CharAt var51 939)))
(assert (= "N" (CharAt var27 917)))
(assert (= "1" (CharAt var39 668)))
(assert (= "v" (CharAt var3 188)))
(assert (= "k" (CharAt var43 438)))
(assert (= "7" (CharAt var48 717)))
(assert (= "Y" (CharAt var51 368)))
(assert (= "+" (CharAt var1 574)))
(assert (= "^" (CharAt var16 463)))
(assert (= "u" (CharAt var40 616)))
(assert (= "v" (CharAt var10 213)))
(assert (= ">" (CharAt var57 362)))
(assert (= ">" (CharAt var12 440)))
(assert (= "o" (CharAt var38 498)))
(assert (= "9" (CharAt var10 928)))
(assert (= "q" (CharAt var2 790)))
(assert (= "$" (CharAt var35 581)))
(assert (= "[" (CharAt var55 710)))
(assert (= "/" (CharAt var24 866)))
(assert (= "~" (CharAt var27 4)))
(assert (= ":" (CharAt var37 662)))
(assert (= "y" (CharAt var26 49)))
(assert (= "i" (CharAt var38 83)))
(assert (= "w" (CharAt var2 92)))
(assert (= "}" (CharAt var59 577)))
(assert (= "2" (CharAt var0 273)))
(assert (= "9" (CharAt var16 662)))
(assert (= "8" (CharAt var47 7)))
(assert (= "^" (CharAt var30 724)))
(assert (= "W" (CharAt var21 975)))
(assert (= "f" (CharAt var48 939)))
(assert (= "`" (CharAt var37 370)))
(assert (= "j" (CharAt var39 839)))
(assert (= "%" (CharAt var45 658)))
(assert (= "I" (CharAt var53 694)))
(assert (= "N" (CharAt var59 503)))
(assert (= ")" (CharAt var27 696)))
(assert (= "g" (CharAt var30 624)))
(assert (= "," (CharAt var20 478)))
(assert (= "W" (CharAt var8 575)))
(assert (= "7" (CharAt var0 500)))
(assert (= "I" (CharAt var14 572)))
(assert (= "Q" (CharAt var25 798)))
(assert (= "G" (CharAt var40 536)))
(assert (= "Z" (CharAt var18 481)))
(assert (= "k" (CharAt var51 736)))
(assert (= "N" (CharAt var44 158)))
(assert (= "}" (CharAt var41 569)))
(assert (= "x" (CharAt var27 521)))
(assert (= "w" (CharAt var16 466)))
(assert (= "u" (CharAt var8 9)))
(assert (= "s" (CharAt var15 859)))
(assert (= "*" (CharAt var60 937)))
(assert (= "O" (CharAt var59 22)))
(assert (= "g" (CharAt var51 535)))
(assert (= "=" (CharAt var55 132)))
(assert (= "5" (CharAt var56 440)))
(assert (= "," (CharAt var43 178)))
(assert (= "s" (CharAt var24 503)))
(assert (= "L" (CharAt var9 107)))
(assert (= "x" (CharAt var12 523)))
(assert (= "]" (CharAt var20 152)))
(assert (= "r" (CharAt var0 751)))
(assert (= "?" (CharAt var10 524)))
(assert (= "C" (CharAt var37 761)))
(assert (= "U" (CharAt var47 896)))
(assert (= "l" (CharAt var37 864)))
(assert (= "w" (CharAt var38 183)))
(assert (= "~" (CharAt var8 449)))
(assert (= "L" (CharAt var12 392)))
(assert (= "!" (CharAt var41 568)))
(assert (= "9" (CharAt var7 621)))
(assert (= "[" (CharAt var58 998)))
(assert (= "~" (CharAt var56 656)))
(assert (= "S" (CharAt var59 816)))
(assert (= "8" (CharAt var20 519)))
(assert (= "c" (CharAt var9 48)))
(assert (= "W" (CharAt var8 21)))
(assert (= "0" (CharAt var47 895)))
(assert (= "2" (CharAt var11 948)))
(assert (= "*" (CharAt var32 767)))
(assert (= "4" (CharAt var39 254)))
(assert (= "O" (CharAt var35 243)))
(assert (= "8" (CharAt var28 744)))
(assert (= "i" (CharAt var54 115)))
(assert (= "b" (CharAt var20 706)))
(assert (= "o" (CharAt var52 68)))
(assert (= "K" (CharAt var44 773)))
(assert (= "_" (CharAt var4 55)))
(assert (= "z" (CharAt var40 577)))
(assert (= "T" (CharAt var36 991)))
(assert (= "+" (CharAt var8 342)))
(assert (= "b" (CharAt var40 296)))
(assert (= "z" (CharAt var41 476)))
(assert (= "c" (CharAt var51 655)))
(assert (= "!" (CharAt var1 549)))
(assert (= "i" (CharAt var48 44)))
(assert (= "z" (CharAt var42 966)))
(assert (= "<" (CharAt var20 482)))
(assert (= "+" (CharAt var31 230)))
(assert (= "U" (CharAt var8 642)))
(assert (= "p" (CharAt var45 844)))
(assert (= "L" (CharAt var9 803)))
(assert (= "A" (CharAt var40 39)))
(assert (= "S" (CharAt var51 74)))
(assert (= "_" (CharAt var6 293)))
(assert (= "Y" (CharAt var51 817)))
(assert (= "A" (CharAt var27 487)))
(assert (= "d" (CharAt var23 629)))
(assert (= "Z" (CharAt var23 407)))
(assert (= "a" (CharAt var40 275)))
(assert (= "%" (CharAt var52 311)))
(assert (= "g" (CharAt var0 356)))
(assert (= "7" (CharAt var11 41)))
(assert (= "-" (CharAt var52 719)))
(assert (= "E" (CharAt var14 108)))
(assert (= "A" (CharAt var37 364)))
(assert (= "w" (CharAt var42 242)))
(assert (= "G" (CharAt var38 835)))
(assert (= ")" (CharAt var0 72)))
(assert (= "<" (CharAt var23 338)))
(assert (= "<" (CharAt var44 481)))
(assert (= "Q" (CharAt var46 949)))
(assert (= "<" (CharAt var29 370)))
(assert (= "&" (CharAt var19 812)))
(assert (= "L" (CharAt var35 654)))
(assert (= ")" (CharAt var26 947)))
(assert (= "." (CharAt var35 578)))
(assert (= "+" (CharAt var25 654)))
(assert (= "D" (CharAt var21 182)))
(assert (= "W" (CharAt var54 968)))
(assert (= "8" (CharAt var24 338)))
(assert (= "P" (CharAt var13 127)))
(assert (= "k" (CharAt var51 713)))
(assert (= "i" (CharAt var26 830)))
(assert (= "4" (CharAt var21 293)))
(assert (= "<" (CharAt var10 77)))
(assert (= "c" (CharAt var36 297)))
(assert (= "@" (CharAt var34 209)))
(assert (= "6" (CharAt var47 931)))
(assert (= "7" (CharAt var34 62)))
(assert (= "x" (CharAt var6 298)))
(assert (= "k" (CharAt var35 152)))
(assert (= "q" (CharAt var21 894)))
(assert (= "k" (CharAt var7 727)))
(assert (= "J" (CharAt var59 968)))
(assert (= "4" (CharAt var6 685)))
(assert (= "A" (CharAt var15 632)))
(assert (= "z" (CharAt var12 532)))
(assert (= "[" (CharAt var42 778)))
(assert (= "0" (CharAt var38 991)))
(assert (= "Z" (CharAt var49 205)))
(assert (= "{" (CharAt var53 251)))
(assert (= "'" (CharAt var52 452)))
(assert (= "5" (CharAt var7 321)))
(assert (= "H" (CharAt var38 670)))
(assert (= "6" (CharAt var7 668)))
(assert (= "A" (CharAt var4 398)))
(assert (= "*" (CharAt var31 356)))
(assert (= "p" (CharAt var11 21)))
(assert (= "!" (CharAt var12 844)))
(assert (= "H" (CharAt var57 272)))
(assert (= "L" (CharAt var57 736)))
(assert (= "," (CharAt var56 728)))
(assert (= "T" (CharAt var5 510)))
(assert (= "B" (CharAt var57 874)))
(assert (= "P" (CharAt var60 573)))
(assert (= "(" (CharAt var48 969)))
(assert (= "Y" (CharAt var22 249)))
(assert (= "x" (CharAt var7 296)))
(assert (= "1" (CharAt var22 41)))
(assert (= "s" (CharAt var30 785)))
(assert (= ":" (CharAt var12 14)))
(assert (= "q" (CharAt var33 488)))
(assert (= "q" (CharAt var2 568)))
(assert (= "`" (CharAt var28 446)))
(assert (= "\"" (CharAt var38 57)))
(assert (= "a" (CharAt var36 49)))
(assert (= "w" (CharAt var19 11)))
(assert (= "$" (CharAt var57 664)))
(check-sat)